02_kosuge/B4_bachelor_thesis/paper/code/color.smt2
; color.smt2
(declare-const x_1 Int)
(declare-const x_2 Int)
(declare-const x_3 Int)
(declare-const x_4 Int)
(declare-const x_5 Int)
(declare-const x_6 Int)
(assert (and (>= x_1 1) (<= x_1 3)))
(assert (and (>= x_2 1) (<= x_2 3)))
(assert (and (>= x_3 1) (<= x_3 3)))
(assert (and (>= x_4 1) (<= x_4 3)))
(assert (and (>= x_5 1) (<= x_5 3)))
(assert (and (>= x_6 1) (<= x_6 3)))
(assert (not (= x_1 x_2)))
(assert (not (= x_1 x_3)))
(assert (not (= x_1 x_4)))
(assert (not (= x_2 x_4)))
(assert (not (= x_2 x_5)))
(assert (not (= x_2 x_6)))
(assert (not (= x_3 x_5)))
(assert (not (= x_3 x_6)))
(assert (not (= x_4 x_5)))
(assert (not (= x_5 x_6)))
(check-sat)
(get-model)
(exit)
